
Gurobi 11.0.2 (win64) logging started Wed Aug  7 21:22:26 2024

Set parameter LogFile to value "D:\Documenti\Scuola\Laurea magistrale unibs\laurea-unibs-mkfsp\output\2024-08-07T17_25_17.381079\logs\instance12_bucket4.log"
Set parameter TimeLimit to value 100
Set parameter MIPGap to value 0
Gurobi Optimizer version 11.0.2 build v11.0.2rc0 (win64 - Windows 10.0 (19045.2))

CPU model: Intel(R) Core(TM) i5-4670 CPU @ 3.40GHz, instruction set [SSE2|AVX|AVX2]
Thread count: 4 physical cores, 4 logical processors, using up to 4 threads

Optimize a model with 16900 rows, 90843 columns and 2555105 nonzeros
Model fingerprint: 0x2a2d64aa
Variable types: 0 continuous, 90843 integer (90144 binary)
Coefficient statistics:
  Matrix range     [1e+00, 9e+03]
  Objective range  [6e+02, 9e+03]
  Bounds range     [1e+00, 1e+00]
  RHS range        [1e+00, 4e+06]
Presolve removed 0 rows and 0 columns (presolve time = 5s) ...
Presolve time: 7.20s
Presolved: 16900 rows, 90843 columns, 2555105 nonzeros
Variable types: 0 continuous, 90843 integer (90144 binary)
Deterministic concurrent LP optimizer: primal simplex, dual simplex, and barrier
Showing barrier log only...

Root barrier log...

Ordering time: 0.29s

Barrier statistics:
 AA' NZ     : 2.720e+06
 Factor NZ  : 2.910e+06 (roughly 60 MB of memory)
 Factor Ops : 1.374e+09 (less than 1 second per iteration)
 Threads    : 1

                  Objective                Residual
Iter       Primal          Dual         Primal    Dual     Compl     Time
   0   5.52877820e+08  4.13209788e+08  2.78e+07 0.00e+00  1.55e+06    11s
   1   1.02982956e+08  4.33027028e+08  4.56e+06 3.13e-13  2.73e+05    12s
   2   4.72659911e+06  4.11656596e+08  5.62e+04 6.82e-13  5.78e+03    12s
   3   3.60212032e+06  1.54952410e+08  1.11e+03 1.36e-12  9.76e+02    13s
   4   3.60299999e+06  1.84841706e+07  1.23e-13 1.28e-13  9.19e+01    13s
   5   3.84374880e+06  5.62829013e+06  5.00e-14 3.29e-14  1.10e+01    14s
   6   3.86584820e+06  3.97415391e+06  5.57e-14 4.86e-14  6.69e-01    15s
   7   3.87298945e+06  3.91020554e+06  8.32e-13 3.33e-14  2.30e-01    16s
   8   3.87452879e+06  3.88299846e+06  1.67e-12 3.82e-14  5.23e-02    16s
   9   3.87484889e+06  3.87669879e+06  3.32e-12 4.17e-14  1.14e-02    17s
  10   3.87499451e+06  3.87529260e+06  2.44e-11 3.77e-14  1.84e-03    18s
  11   3.87504470e+06  3.87510089e+06  3.52e-11 3.73e-14  3.47e-04    18s
  12   3.87505366e+06  3.87509510e+06  2.67e-10 4.29e-14  2.56e-04    19s
  13   3.87505661e+06  3.87507058e+06  6.64e-11 4.09e-14  8.63e-05    20s
  14   3.87505673e+06  3.87505842e+06  5.69e-11 4.62e-14  1.04e-05    21s
  15   3.87505758e+06  3.87505762e+06  1.89e-12 3.91e-14  2.30e-07    22s
  16   3.87505758e+06  3.87505762e+06  3.12e-07 4.40e-14  2.29e-07    23s

Barrier solved model in 16 iterations and 22.52 seconds (12.37 work units)
Optimal objective 3.87505758e+06

  Building initial crossover basis                                30s
  Building initial crossover basis                                35s

Root crossover log...

    4851 DPushes remaining with DInf 4.4792023e+01                38s
       0 DPushes remaining with DInf 0.0000000e+00                40s

    2760 PPushes remaining with PInf 7.2467268e-03                40s
     811 PPushes remaining with PInf 1.5111411e+00                40s
       0 PPushes remaining with PInf 0.0000000e+00                41s

  Push phase complete: Pinf 0.0000000e+00, Dinf 2.1279398e+01     41s


Root simplex log...

Iteration    Objective       Primal Inf.    Dual Inf.      Time
    7586    3.8750576e+06   0.000000e+00   2.127940e+01     41s
    7596    3.8750576e+06   0.000000e+00   0.000000e+00     41s
Concurrent spin time: 0.01s

Solved with barrier
    7596    3.8750576e+06   0.000000e+00   0.000000e+00     41s

Root relaxation: objective 3.875058e+06, 7596 iterations, 33.22 seconds (15.65 work units)

    Nodes    |    Current Node    |     Objective Bounds      |     Work
 Expl Unexpl |  Obj  Depth IntInf | Incumbent    BestBd   Gap | It/Node Time

     0     0 3875057.60    0 5344          - 3875057.60      -     -  100s

Explored 1 nodes (39433 simplex iterations) in 100.04 seconds (79.29 work units)
Thread count was 4 (of 4 available processors)

Solution count 0

Time limit reached
Best objective -, best bound 3.875057600850e+06, gap -
